proyfinal/src/viki/013/experimentInOfficeAgust.take6.output/a4200365-6850-4554-8286-14d2f7bc0781.als.dat
{'cnf.clauses': '118081',
 'cnf.totvars': '69608',
 'conflict literals': '11',
 'conflicts': '8',
 'decisions': '6737',
 'memused.mb': '15.84',
 'outcome': 'UNSAT',
 'propagations': '33918',
 'restarts': '1',
 'solver.msecs': 29,
 'task.msecs': 82}
