proyfinal/src/viki/013/experimentInOfficeAgust.take6.output/a4200365-6850-4554-8286-14d2f7bc0781.als.out
Reading from standard input... Use '--help' for help.
============================[ Problem Statistics ]=============================
|                                                                             |
|  Number of variables:         69608                                         |
|  Number of clauses:          118081                                         |
|  Parse time:                   0.02 s                                       |
|                                                                             |
============================[ Search Statistics ]==============================
| Conflicts |          ORIGINAL         |          LEARNT          | Progress |
|           |    Vars  Clauses Literals |    Limit  Clauses Lit/Cl |          |
===============================================================================
===============================================================================
restarts              : 1
conflicts             : 8              (267 /sec)
decisions             : 6737           (0.00 % random) (224612 /sec)
propagations          : 33918          (1130826 /sec)
conflict literals     : 11             (0.00 % deleted)
Memory used           : 15.84 MB
CPU time              : 0.029994 s

UNSATISFIABLE
